# vtk DataFile Version 2.0
step 0 time 0.000000e+00 normalized time 0.000000e+00, generated by meshing.py
ASCII
DATASET UNSTRUCTURED_GRID

POINTS 55 float
0.000000e+00 0.000000e+00 0.000000e+00
7.500000e+01 0.000000e+00 0.000000e+00
0.000000e+00 7.500000e+01 0.000000e+00
1.071429e+01 0.000000e+00 0.000000e+00
2.142857e+01 0.000000e+00 0.000000e+00
3.214286e+01 0.000000e+00 0.000000e+00
4.285714e+01 0.000000e+00 0.000000e+00
5.357143e+01 0.000000e+00 0.000000e+00
6.428571e+01 0.000000e+00 0.000000e+00
0.000000e+00 1.071429e+01 0.000000e+00
0.000000e+00 2.142857e+01 0.000000e+00
0.000000e+00 3.214286e+01 0.000000e+00
0.000000e+00 4.285714e+01 0.000000e+00
0.000000e+00 5.357143e+01 0.000000e+00
0.000000e+00 6.428571e+01 0.000000e+00
7.423661e+01 1.067361e+01 0.000000e+00
7.196197e+01 2.112994e+01 0.000000e+00
6.822240e+01 3.115613e+01 0.000000e+00
6.309401e+01 4.054806e+01 0.000000e+00
5.668122e+01 4.911456e+01 0.000000e+00
4.911456e+01 5.668122e+01 0.000000e+00
4.054806e+01 6.309401e+01 0.000000e+00
3.115613e+01 6.822240e+01 0.000000e+00
2.112994e+01 7.196197e+01 0.000000e+00
1.067361e+01 7.423661e+01 0.000000e+00
1.978064e+01 5.852776e+01 0.000000e+00
2.446389e+01 2.633292e+01 0.000000e+00
4.841999e+01 4.533139e+01 0.000000e+00
1.034694e+01 3.898205e+01 0.000000e+00
4.024538e+01 9.726965e+00 0.000000e+00
4.740021e+01 3.478204e+01 0.000000e+00
1.318825e+01 2.654085e+01 0.000000e+00
2.799400e+01 8.987854e+00 0.000000e+00
1.965667e+01 1.767786e+01 0.000000e+00
1.867054e+01 7.276934e+00 0.000000e+00
3.699425e+01 3.043617e+01 0.000000e+00
5.319917e+01 3.792859e+01 0.000000e+00
2.982689e+01 3.798379e+01 0.000000e+00
3.257063e+01 1.898003e+01 0.000000e+00
1.953585e+01 3.454134e+01 0.000000e+00
5.997138e+01 2.029010e+01 0.000000e+00
5.024490e+01 9.103503e+00 0.000000e+00
1.004563e+01 6.251208e+01 0.000000e+00
4.600980e+01 2.103233e+01 0.000000e+00
6.274148e+01 9.758242e+00 0.000000e+00
2.235534e+01 4.653335e+01 0.000000e+00
1.004895e+01 4.970083e+01 0.000000e+00
5.640535e+01 3.082668e+01 0.000000e+00
3.336729e+01 4.674286e+01 0.000000e+00
2.606847e+01 6.353294e+01 0.000000e+00
2.944752e+01 5.622915e+01 0.000000e+00
3.965244e+01 5.422253e+01 0.000000e+00
8.025513e+00 1.841259e+01 0.000000e+00
3.968793e+01 4.181981e+01 0.000000e+00
8.308714e+00 9.005551e+00 0.000000e+00

CELLS 83 332
3 28 12 11 
3 6 29 5 
3 33 26 31 
3 34 4 32 
3 31 11 10 
3 5 32 4 
3 32 33 34 
3 32 5 29 
3 11 31 28 
3 36 18 19 
3 29 38 32 
3 26 38 35 
3 26 39 31 
3 39 28 31 
3 39 26 37 
3 42 14 13 
3 43 30 35 
3 8 44 7 
3 33 38 26 
3 33 32 38 
3 35 37 26 
3 43 38 29 
3 35 38 43 
3 39 45 28 
3 39 37 45 
3 43 29 41 
3 36 27 30 
3 40 43 41 
3 19 27 36 
3 41 6 7 
3 29 6 41 
3 12 46 13 
3 46 12 28 
3 41 44 40 
3 44 41 7 
3 46 42 13 
3 43 47 30 
3 47 43 40 
3 28 45 46 
3 45 25 46 
3 42 46 25 
3 15 44 8 
3 1 15 8 
3 42 24 14 
3 24 2 14 
3 30 47 36 
3 36 47 18 
3 18 47 17 
3 15 16 44 
3 16 40 44 
3 40 17 47 
3 17 40 16 
3 20 27 19 
3 48 45 37 
3 23 49 22 
3 23 42 25 
3 24 42 23 
3 25 49 23 
3 20 51 27 
3 53 30 27 
3 30 53 35 
3 51 53 27 
3 51 48 53 
3 53 37 35 
3 48 37 53 
3 49 25 50 
3 45 50 25 
3 50 45 48 
3 21 51 20 
3 51 50 48 
3 22 49 50 
3 52 10 9 
3 31 10 52 
3 52 33 31 
3 50 21 22 
3 51 21 50 
3 54 9 0 
3 3 54 0 
3 9 54 52 
3 3 34 54 
3 4 34 3 
3 33 54 34 
3 33 52 54 

CELL_TYPES 83
5
5
5
5
5
5
5
5
5
5
5
5
5
5
5
5
5
5
5
5
5
5
5
5
5
5
5
5
5
5
5
5
5
5
5
5
5
5
5
5
5
5
5
5
5
5
5
5
5
5
5
5
5
5
5
5
5
5
5
5
5
5
5
5
5
5
5
5
5
5
5
5
5
5
5
5
5
5
5
5
5
5
5

POINT_DATA 55

SCALARS node_groups int 1
LOOKUP_TABLE default
0
0
0
0
0
0
0
0
0
0
0
0
0
0
0
0
0
0
0
0
0
0
0
0
0
0
0
0
0
0
0
0
0
0
0
0
0
0
0
0
0
0
0
0
0
0
0
0
0
0
0
0
0
0
0

VECTORS u float
0.000000e+00 0.000000e+00 0.000000e+00
3.737667e-01 0.000000e+00 0.000000e+00
0.000000e+00 -1.653182e+00 0.000000e+00
1.097665e-01 0.000000e+00 0.000000e+00
2.057241e-01 0.000000e+00 0.000000e+00
2.816780e-01 0.000000e+00 0.000000e+00
3.294770e-01 0.000000e+00 0.000000e+00
3.613560e-01 0.000000e+00 0.000000e+00
3.732822e-01 0.000000e+00 0.000000e+00
0.000000e+00 -1.454478e-01 0.000000e+00
0.000000e+00 -3.011864e-01 0.000000e+00
0.000000e+00 -4.645282e-01 0.000000e+00
0.000000e+00 -6.622565e-01 0.000000e+00
0.000000e+00 -9.094325e-01 0.000000e+00
0.000000e+00 -1.232030e+00 0.000000e+00
3.753886e-01 -3.379786e-04 0.000000e+00
3.637690e-01 -5.402396e-03 0.000000e+00
3.392347e-01 -1.808781e-02 0.000000e+00
2.977350e-01 -4.387428e-02 0.000000e+00
2.569567e-01 -7.982277e-02 0.000000e+00
2.126852e-01 -1.312182e-01 0.000000e+00
1.524051e-01 -2.193494e-01 0.000000e+00
1.071402e-01 -3.566712e-01 0.000000e+00
9.327390e-02 -5.742091e-01 0.000000e+00
1.003270e-01 -8.895035e-01 0.000000e+00
1.810432e-01 -5.564296e-01 0.000000e+00
2.327539e-01 -2.375918e-01 0.000000e+00
2.736750e-01 -1.320907e-01 0.000000e+00
1.256967e-01 -5.054363e-01 0.000000e+00
3.209341e-01 -5.203202e-02 0.000000e+00
3.089675e-01 -1.203136e-01 0.000000e+00
1.474468e-01 -3.174020e-01 0.000000e+00
2.556204e-01 -7.611875e-02 0.000000e+00
1.988024e-01 -1.864374e-01 0.000000e+00
1.810315e-01 -7.775220e-02 0.000000e+00
2.941307e-01 -1.788641e-01 0.000000e+00
3.041774e-01 -9.344542e-02 0.000000e+00
2.603745e-01 -2.812367e-01 0.000000e+00
2.804110e-01 -1.353347e-01 0.000000e+00
2.017614e-01 -3.488407e-01 0.000000e+00
3.582514e-01 -3.467458e-02 0.000000e+00
3.523581e-01 -3.226999e-02 0.000000e+00
1.256660e-01 -8.196695e-01 0.000000e+00
3.321094e-01 -8.573832e-02 0.000000e+00
3.712472e-01 -1.256951e-02 0.000000e+00
2.175887e-01 -4.253429e-01 0.000000e+00
1.296187e-01 -6.506514e-01 0.000000e+00
3.323438e-01 -6.732499e-02 0.000000e+00
2.508813e-01 -2.836614e-01 0.000000e+00
1.511939e-01 -4.577878e-01 0.000000e+00
2.159029e-01 -3.717842e-01 0.000000e+00
2.308069e-01 -2.240645e-01 0.000000e+00
8.716448e-02 -2.306905e-01 0.000000e+00
2.774136e-01 -1.992385e-01 0.000000e+00
8.820237e-02 -1.120153e-01 0.000000e+00

CELL_DATA 83
SCALARS mat_id int 1
LOOKUP_TABLE default
5
5
5
5
5
5
5
5
5
5
5
5
5
5
5
5
5
5
5
5
5
5
5
5
5
5
5
5
5
5
5
5
5
5
5
5
5
5
5
5
5
5
5
5
5
5
5
5
5
5
5
5
5
5
5
5
5
5
5
5
5
5
5
5
5
5
5
5
5
5
5
5
5
5
5
5
5
5
5
5
5
5
5

TENSORS cauchy_stress float
-6.638439e-01 5.889018e+00 0.000000e+00
5.889018e+00 -4.438218e+01 0.000000e+00
0.000000e+00 0.000000e+00 0.000000e+00

3.836033e+00 2.282890e-01 0.000000e+00
2.282890e-01 -1.017897e+01 0.000000e+00
0.000000e+00 0.000000e+00 0.000000e+00

4.568141e+00 4.729937e+00 0.000000e+00
4.729937e+00 -2.014961e+01 0.000000e+00
0.000000e+00 0.000000e+00 0.000000e+00

6.186528e+00 1.185272e+00 0.000000e+00
1.185272e+00 -1.951340e+01 0.000000e+00
0.000000e+00 0.000000e+00 0.000000e+00

4.357182e+00 3.342929e+00 0.000000e+00
3.342929e+00 -3.339338e+01 0.000000e+00
0.000000e+00 0.000000e+00 0.000000e+00

6.184232e+00 2.665359e-01 0.000000e+00
2.665359e-01 -1.604163e+01 0.000000e+00
0.000000e+00 0.000000e+00 0.000000e+00

3.093001e+00 2.211946e+00 0.000000e+00
2.211946e+00 -2.329871e+01 0.000000e+00
0.000000e+00 0.000000e+00 0.000000e+00

1.938924e+00 1.416733e+00 0.000000e+00
1.416733e+00 -1.622324e+01 0.000000e+00
0.000000e+00 0.000000e+00 0.000000e+00

9.777854e+00 4.383047e+00 0.000000e+00
4.383047e+00 -2.661493e+01 0.000000e+00
0.000000e+00 0.000000e+00 0.000000e+00

1.114833e+00 5.204996e-01 0.000000e+00
5.204996e-01 -1.432859e-01 0.000000e+00
0.000000e+00 0.000000e+00 0.000000e+00

2.778089e+00 1.735667e+00 0.000000e+00
1.735667e+00 -1.486392e+01 0.000000e+00
0.000000e+00 0.000000e+00 0.000000e+00

3.760353e+00 4.282409e+00 0.000000e+00
4.282409e+00 -1.278207e+01 0.000000e+00
0.000000e+00 0.000000e+00 0.000000e+00

5.606043e+00 5.485451e+00 0.000000e+00
5.485451e+00 -1.866201e+01 0.000000e+00
0.000000e+00 0.000000e+00 0.000000e+00

-2.322591e-01 7.932683e+00 0.000000e+00
7.932683e+00 -3.018828e+01 0.000000e+00
0.000000e+00 0.000000e+00 0.000000e+00

1.971757e+00 6.392340e+00 0.000000e+00
6.392340e+00 -1.773804e+01 0.000000e+00
0.000000e+00 0.000000e+00 0.000000e+00

-3.241392e+01 2.552342e+01 0.000000e+00
2.552342e+01 -9.329771e+01 0.000000e+00
0.000000e+00 0.000000e+00 0.000000e+00

3.265298e-01 3.616707e+00 0.000000e+00
3.616707e+00 -7.447964e+00 0.000000e+00
0.000000e+00 0.000000e+00 0.000000e+00

1.090207e+00 -2.313560e-02 0.000000e+00
-2.313560e-02 -2.340081e+00 0.000000e+00
0.000000e+00 0.000000e+00 0.000000e+00

2.353339e+00 3.757532e+00 0.000000e+00
3.757532e+00 -1.888183e+01 0.000000e+00
0.000000e+00 0.000000e+00 0.000000e+00

4.089333e+00 3.101307e+00 0.000000e+00
3.101307e+00 -1.659141e+01 0.000000e+00
0.000000e+00 0.000000e+00 0.000000e+00

9.401337e-01 5.071199e+00 0.000000e+00
5.071199e+00 -1.592382e+01 0.000000e+00
0.000000e+00 0.000000e+00 0.000000e+00

2.109112e+00 2.457635e+00 0.000000e+00
2.457635e+00 -1.115053e+01 0.000000e+00
0.000000e+00 0.000000e+00 0.000000e+00

8.236569e-01 3.023168e+00 0.000000e+00
3.023168e+00 -1.267008e+01 0.000000e+00
0.000000e+00 0.000000e+00 0.000000e+00

7.664491e+00 8.551499e+00 0.000000e+00
8.551499e+00 -1.709628e+01 0.000000e+00
0.000000e+00 0.000000e+00 0.000000e+00

-1.329561e-01 6.732273e+00 0.000000e+00
6.732273e+00 -2.056564e+01 0.000000e+00
0.000000e+00 0.000000e+00 0.000000e+00

2.262790e+00 8.145123e-01 0.000000e+00
8.145123e-01 -7.696748e+00 0.000000e+00
0.000000e+00 0.000000e+00 0.000000e+00

-2.424346e-01 1.487614e+00 0.000000e+00
1.487614e+00 -4.092252e+00 0.000000e+00
0.000000e+00 0.000000e+00 0.000000e+00

-1.486625e+00 1.737413e+00 0.000000e+00
1.737413e+00 -8.717322e+00 0.000000e+00
0.000000e+00 0.000000e+00 0.000000e+00

-2.957102e+00 1.814134e+00 0.000000e+00
1.814134e+00 -4.058572e+00 0.000000e+00
0.000000e+00 0.000000e+00 0.000000e+00

2.623618e+00 7.060015e-02 0.000000e+00
7.060015e-02 -6.690895e+00 0.000000e+00
0.000000e+00 0.000000e+00 0.000000e+00

-5.431266e-01 1.168346e+00 0.000000e+00
1.168346e+00 -1.203029e+01 0.000000e+00
0.000000e+00 0.000000e+00 0.000000e+00

-1.063336e+01 1.204726e+01 0.000000e+00
1.204726e+01 -6.201691e+01 0.000000e+00
0.000000e+00 0.000000e+00 0.000000e+00

1.530644e+01 7.785322e+00 0.000000e+00
7.785322e+00 -2.137780e+01 0.000000e+00
0.000000e+00 0.000000e+00 0.000000e+00

1.916597e+00 5.989293e-01 0.000000e+00
5.989293e-01 -2.677834e+00 0.000000e+00
0.000000e+00 0.000000e+00 0.000000e+00

-1.748638e+00 9.294428e-01 0.000000e+00
9.294428e-01 -8.101374e+00 0.000000e+00
0.000000e+00 0.000000e+00 0.000000e+00

1.709761e+01 1.454807e+01 0.000000e+00
1.454807e+01 -2.000059e+01 0.000000e+00
0.000000e+00 0.000000e+00 0.000000e+00

-8.883550e-01 1.938313e+00 0.000000e+00
1.938313e+00 -7.681308e+00 0.000000e+00
0.000000e+00 0.000000e+00 0.000000e+00

2.186860e+00 1.212956e+00 0.000000e+00
1.212956e+00 -3.054063e+00 0.000000e+00
0.000000e+00 0.000000e+00 0.000000e+00

-6.259032e+00 1.106914e+01 0.000000e+00
1.106914e+01 -3.544105e+01 0.000000e+00
0.000000e+00 0.000000e+00 0.000000e+00

7.703294e+00 1.057186e+01 0.000000e+00
1.057186e+01 -1.250322e+01 0.000000e+00
0.000000e+00 0.000000e+00 0.000000e+00

-1.383759e+01 1.524012e+01 0.000000e+00
1.524012e+01 -4.062345e+01 0.000000e+00
0.000000e+00 0.000000e+00 0.000000e+00

-1.564249e+00 7.160544e-01 0.000000e+00
7.160544e-01 -3.675619e+00 0.000000e+00
0.000000e+00 0.000000e+00 0.000000e+00

1.033420e-01 1.108475e-01 0.000000e+00
1.108475e-01 -6.497904e-03 0.000000e+00
0.000000e+00 0.000000e+00 0.000000e+00

2.840863e+01 2.629841e+01 0.000000e+00
2.629841e+01 -2.953556e-01 0.000000e+00
0.000000e+00 0.000000e+00 0.000000e+00

-7.202326e+01 4.909779e+01 0.000000e+00
4.909779e+01 -1.416046e+02 0.000000e+00
0.000000e+00 0.000000e+00 0.000000e+00

9.242179e-01 1.313877e+00 0.000000e+00
1.313877e+00 -2.417484e+00 0.000000e+00
0.000000e+00 0.000000e+00 0.000000e+00

-2.087604e+00 1.099648e+00 0.000000e+00
1.099648e+00 -4.403793e+00 0.000000e+00
0.000000e+00 0.000000e+00 0.000000e+00

1.657732e+00 1.005622e-01 0.000000e+00
1.005622e-01 1.833640e-03 0.000000e+00
0.000000e+00 0.000000e+00 0.000000e+00

1.180344e+00 4.897862e-02 0.000000e+00
4.897862e-02 1.950826e-01 0.000000e+00
0.000000e+00 0.000000e+00 0.000000e+00

-1.786772e+00 1.034762e+00 0.000000e+00
1.034762e+00 -4.596946e+00 0.000000e+00
0.000000e+00 0.000000e+00 0.000000e+00

-2.012646e+00 1.409231e+00 0.000000e+00
1.409231e+00 -5.324671e+00 0.000000e+00
0.000000e+00 0.000000e+00 0.000000e+00

1.650166e+00 1.771499e-01 0.000000e+00
1.771499e-01 2.771232e-01 0.000000e+00
0.000000e+00 0.000000e+00 0.000000e+00

1.015220e+00 7.656805e-01 0.000000e+00
7.656805e-01 -8.329630e-02 0.000000e+00
0.000000e+00 0.000000e+00 0.000000e+00

-2.624176e+00 7.605340e+00 0.000000e+00
7.605340e+00 -1.489171e+01 0.000000e+00
0.000000e+00 0.000000e+00 0.000000e+00

-1.049189e+01 9.582817e+00 0.000000e+00
9.582817e+00 -1.034542e+01 0.000000e+00
0.000000e+00 0.000000e+00 0.000000e+00

1.324070e+00 1.330608e+01 0.000000e+00
1.330608e+01 -8.355021e+00 0.000000e+00
0.000000e+00 0.000000e+00 0.000000e+00

-2.623232e+01 1.887485e+01 0.000000e+00
1.887485e+01 -3.530748e+01 0.000000e+00
0.000000e+00 0.000000e+00 0.000000e+00

-6.890906e+00 8.295161e+00 0.000000e+00
8.295161e+00 -1.209634e+01 0.000000e+00
0.000000e+00 0.000000e+00 0.000000e+00

-3.779826e+00 3.292373e+00 0.000000e+00
3.292373e+00 -3.786692e+00 0.000000e+00
0.000000e+00 0.000000e+00 0.000000e+00

-1.438492e+00 3.593005e+00 0.000000e+00
3.593005e+00 -5.566042e+00 0.000000e+00
0.000000e+00 0.000000e+00 0.000000e+00

-1.983333e-01 3.620824e+00 0.000000e+00
3.620824e+00 -8.378596e+00 0.000000e+00
0.000000e+00 0.000000e+00 0.000000e+00

-1.013414e+00 3.378788e+00 0.000000e+00
3.378788e+00 -5.383662e+00 0.000000e+00
0.000000e+00 0.000000e+00 0.000000e+00

-1.637554e-01 5.764184e+00 0.000000e+00
5.764184e+00 -4.794477e+00 0.000000e+00
0.000000e+00 0.000000e+00 0.000000e+00

-9.712684e-01 5.612497e+00 0.000000e+00
5.612497e+00 -1.050077e+01 0.000000e+00
0.000000e+00 0.000000e+00 0.000000e+00

-1.402148e+00 5.628442e+00 0.000000e+00
5.628442e+00 -1.121241e+01 0.000000e+00
0.000000e+00 0.000000e+00 0.000000e+00

-2.212415e+00 7.311131e+00 0.000000e+00
7.311131e+00 -9.335673e+00 0.000000e+00
0.000000e+00 0.000000e+00 0.000000e+00

-7.546417e+00 1.071047e+01 0.000000e+00
1.071047e+01 -2.216462e+01 0.000000e+00
0.000000e+00 0.000000e+00 0.000000e+00

1.890987e+00 7.515829e+00 0.000000e+00
7.515829e+00 -8.125441e+00 0.000000e+00
0.000000e+00 0.000000e+00 0.000000e+00

3.306099e-01 7.556626e-01 0.000000e+00
7.556626e-01 -9.021978e-01 0.000000e+00
0.000000e+00 0.000000e+00 0.000000e+00

-6.857397e+00 7.436292e+00 0.000000e+00
7.436292e+00 -1.314492e+01 0.000000e+00
0.000000e+00 0.000000e+00 0.000000e+00

-6.648495e+00 8.944774e+00 0.000000e+00
8.944774e+00 -8.739120e+00 0.000000e+00
0.000000e+00 0.000000e+00 0.000000e+00

5.016524e+00 2.372509e+00 0.000000e+00
2.372509e+00 -3.126423e+01 0.000000e+00
0.000000e+00 0.000000e+00 0.000000e+00

9.744994e+00 3.052162e+00 0.000000e+00
3.052162e+00 -2.473275e+01 0.000000e+00
0.000000e+00 0.000000e+00 0.000000e+00

5.536448e+00 3.056535e+00 0.000000e+00
3.056535e+00 -2.626085e+01 0.000000e+00
0.000000e+00 0.000000e+00 0.000000e+00

-2.707484e+00 3.680841e+00 0.000000e+00
3.680841e+00 -3.622803e+00 0.000000e+00
0.000000e+00 0.000000e+00 0.000000e+00

-3.770240e+00 3.918577e+00 0.000000e+00
3.918577e+00 -4.684371e+00 0.000000e+00
0.000000e+00 0.000000e+00 0.000000e+00

6.709538e+00 8.799929e-01 0.000000e+00
8.799929e-01 -2.784871e+01 0.000000e+00
0.000000e+00 0.000000e+00 0.000000e+00

8.368113e+00 2.443449e-01 0.000000e+00
2.443449e-01 -2.403666e+01 0.000000e+00
0.000000e+00 0.000000e+00 0.000000e+00

9.760423e+00 1.177709e+00 0.000000e+00
1.177709e+00 -2.342704e+01 0.000000e+00
0.000000e+00 0.000000e+00 0.000000e+00

3.838931e+00 9.196576e-01 0.000000e+00
9.196576e-01 -2.623628e+01 0.000000e+00
0.000000e+00 0.000000e+00 0.000000e+00

7.855177e+00 8.335387e-04 0.000000e+00
8.335387e-04 -2.020309e+01 0.000000e+00
0.000000e+00 0.000000e+00 0.000000e+00

8.726610e+00 1.703484e+00 0.000000e+00
1.703484e+00 -1.940961e+01 0.000000e+00
0.000000e+00 0.000000e+00 0.000000e+00

5.398214e+00 2.280346e+00 0.000000e+00
2.280346e+00 -2.622226e+01 0.000000e+00
0.000000e+00 0.000000e+00 0.000000e+00


TENSORS cauchy_strain float
1.214820e-02 8.244625e-03 0.000000e+00
8.244625e-03 -1.845464e-02 0.000000e+00
0.000000e+00 0.000000e+00 0.000000e+00

4.461244e-03 3.196046e-04 0.000000e+00
3.196046e-04 -5.349255e-03 0.000000e+00
0.000000e+00 0.000000e+00 0.000000e+00

7.560509e-03 6.621911e-03 0.000000e+00
6.621911e-03 -9.741915e-03 0.000000e+00
0.000000e+00 0.000000e+00 0.000000e+00

8.062093e-03 1.659380e-03 0.000000e+00
1.659380e-03 -9.927854e-03 0.000000e+00
0.000000e+00 0.000000e+00 0.000000e+00

1.118016e-02 4.680101e-03 0.000000e+00
4.680101e-03 -1.524523e-02 0.000000e+00
0.000000e+00 0.000000e+00 0.000000e+00

7.089033e-03 3.731503e-04 0.000000e+00
3.731503e-04 -8.469069e-03 0.000000e+00
0.000000e+00 0.000000e+00 0.000000e+00

7.822699e-03 3.096724e-03 0.000000e+00
3.096724e-03 -1.065150e-02 0.000000e+00
0.000000e+00 0.000000e+00 0.000000e+00

5.356855e-03 1.983427e-03 0.000000e+00
1.983427e-03 -7.356659e-03 0.000000e+00
0.000000e+00 0.000000e+00 0.000000e+00

1.155888e-02 6.136265e-03 0.000000e+00
6.136265e-03 -1.391607e-02 0.000000e+00
0.000000e+00 0.000000e+00 0.000000e+00

5.083498e-04 7.286994e-04 0.000000e+00
7.286994e-04 -3.723332e-04 0.000000e+00
0.000000e+00 0.000000e+00 0.000000e+00

5.328695e-03 2.429933e-03 0.000000e+00
2.429933e-03 -7.020712e-03 0.000000e+00
0.000000e+00 0.000000e+00 0.000000e+00

5.158328e-03 5.995372e-03 0.000000e+00
5.995372e-03 -6.421369e-03 0.000000e+00
0.000000e+00 0.000000e+00 0.000000e+00

7.579901e-03 7.679632e-03 0.000000e+00
7.679632e-03 -9.407737e-03 0.000000e+00
0.000000e+00 0.000000e+00 0.000000e+00

8.355170e-03 1.110576e-02 0.000000e+00
1.110576e-02 -1.261405e-02 0.000000e+00
0.000000e+00 0.000000e+00 0.000000e+00

5.794789e-03 8.949276e-03 0.000000e+00
8.949276e-03 -8.002069e-03 0.000000e+00
0.000000e+00 0.000000e+00 0.000000e+00

1.250951e-02 3.573279e-02 0.000000e+00
3.573279e-02 -3.010914e-02 0.000000e+00
0.000000e+00 0.000000e+00 0.000000e+00

2.222573e-03 5.063390e-03 0.000000e+00
5.063390e-03 -3.219573e-03 0.000000e+00
0.000000e+00 0.000000e+00 0.000000e+00

1.113110e-03 -3.238984e-05 0.000000e+00
-3.238984e-05 -1.288092e-03 0.000000e+00
0.000000e+00 0.000000e+00 0.000000e+00

6.275315e-03 5.260544e-03 0.000000e+00
5.260544e-03 -8.589304e-03 0.000000e+00
0.000000e+00 0.000000e+00 0.000000e+00

6.363114e-03 4.341830e-03 0.000000e+00
4.341830e-03 -8.113405e-03 0.000000e+00
0.000000e+00 0.000000e+00 0.000000e+00

4.853527e-03 7.099679e-03 0.000000e+00
7.099679e-03 -6.951244e-03 0.000000e+00
0.000000e+00 0.000000e+00 0.000000e+00

4.007976e-03 3.440689e-03 0.000000e+00
3.440689e-03 -5.273775e-03 0.000000e+00
0.000000e+00 0.000000e+00 0.000000e+00

3.893558e-03 4.232435e-03 0.000000e+00
4.232435e-03 -5.552058e-03 0.000000e+00
0.000000e+00 0.000000e+00 0.000000e+00

8.006044e-03 1.197210e-02 0.000000e+00
1.197210e-02 -9.326494e-03 0.000000e+00
0.000000e+00 0.000000e+00 0.000000e+00

5.702539e-03 9.425183e-03 0.000000e+00
9.425183e-03 -8.600343e-03 0.000000e+00
0.000000e+00 0.000000e+00 0.000000e+00

3.105461e-03 1.140317e-03 0.000000e+00
1.140317e-03 -3.866215e-03 0.000000e+00
0.000000e+00 0.000000e+00 0.000000e+00

1.044008e-03 2.082660e-03 0.000000e+00
2.082660e-03 -1.650864e-03 0.000000e+00
0.000000e+00 0.000000e+00 0.000000e+00

1.816468e-03 2.432378e-03 0.000000e+00
2.432378e-03 -3.245020e-03 0.000000e+00
0.000000e+00 0.000000e+00 0.000000e+00

-1.055828e-04 2.539787e-03 0.000000e+00
2.539787e-03 -8.766115e-04 0.000000e+00
0.000000e+00 0.000000e+00 0.000000e+00

2.975370e-03 9.884022e-05 0.000000e+00
9.884022e-05 -3.544789e-03 0.000000e+00
0.000000e+00 0.000000e+00 0.000000e+00

3.140368e-03 1.635685e-03 0.000000e+00
1.635685e-03 -4.900647e-03 0.000000e+00
0.000000e+00 0.000000e+00 0.000000e+00

1.289872e-02 1.686616e-02 0.000000e+00
1.686616e-02 -2.306976e-02 0.000000e+00
0.000000e+00 0.000000e+00 0.000000e+00

1.241449e-02 1.089945e-02 0.000000e+00
1.089945e-02 -1.326448e-02 0.000000e+00
0.000000e+00 0.000000e+00 0.000000e+00

1.554764e-03 8.385011e-04 0.000000e+00
8.385011e-04 -1.661338e-03 0.000000e+00
0.000000e+00 0.000000e+00 0.000000e+00

1.533957e-03 1.301220e-03 0.000000e+00
1.301220e-03 -2.912958e-03 0.000000e+00
0.000000e+00 0.000000e+00 0.000000e+00

1.278116e-02 2.036730e-02 0.000000e+00
2.036730e-02 -1.318758e-02 0.000000e+00
0.000000e+00 0.000000e+00 0.000000e+00

1.777657e-03 2.713638e-03 0.000000e+00
2.713638e-03 -2.977410e-03 0.000000e+00
0.000000e+00 0.000000e+00 0.000000e+00

1.773619e-03 1.698138e-03 0.000000e+00
1.698138e-03 -1.895027e-03 0.000000e+00
0.000000e+00 0.000000e+00 0.000000e+00

7.294701e-03 1.549679e-02 0.000000e+00
1.549679e-02 -1.313271e-02 0.000000e+00
0.000000e+00 0.000000e+00 0.000000e+00

6.736285e-03 1.480060e-02 0.000000e+00
1.480060e-02 -7.408274e-03 0.000000e+00
0.000000e+00 0.000000e+00 0.000000e+00

5.562780e-03 2.133616e-02 0.000000e+00
2.133616e-02 -1.318733e-02 0.000000e+00
0.000000e+00 0.000000e+00 0.000000e+00

3.721889e-04 1.002476e-03 0.000000e+00
1.002476e-03 -1.105770e-03 0.000000e+00
0.000000e+00 0.000000e+00 0.000000e+00

4.522304e-05 1.551866e-04 0.000000e+00
1.551866e-04 -3.166487e-05 0.000000e+00
0.000000e+00 0.000000e+00 0.000000e+00

1.201432e-02 3.681777e-02 0.000000e+00
3.681777e-02 -8.078464e-03 0.000000e+00
0.000000e+00 0.000000e+00 0.000000e+00

9.399532e-03 6.873690e-02 0.000000e+00
6.873690e-02 -3.930744e-02 0.000000e+00
0.000000e+00 0.000000e+00 0.000000e+00

1.065067e-03 1.839427e-03 0.000000e+00
1.839427e-03 -1.274124e-03 0.000000e+00
0.000000e+00 0.000000e+00 0.000000e+00

3.562686e-04 1.539507e-03 0.000000e+00
1.539507e-03 -1.265064e-03 0.000000e+00
0.000000e+00 0.000000e+00 0.000000e+00

6.957338e-04 1.407871e-04 0.000000e+00
1.407871e-04 -4.633947e-04 0.000000e+00
0.000000e+00 0.000000e+00 0.000000e+00

4.411213e-04 6.857006e-05 0.000000e+00
6.857006e-05 -2.485616e-04 0.000000e+00
0.000000e+00 0.000000e+00 0.000000e+00

5.367006e-04 1.448667e-03 0.000000e+00
1.448667e-03 -1.430421e-03 0.000000e+00
0.000000e+00 0.000000e+00 0.000000e+00

6.455964e-04 1.972924e-03 0.000000e+00
1.972924e-03 -1.672821e-03 0.000000e+00
0.000000e+00 0.000000e+00 0.000000e+00

6.154750e-04 2.480098e-04 0.000000e+00
2.480098e-04 -3.456546e-04 0.000000e+00
0.000000e+00 0.000000e+00 0.000000e+00

4.497155e-04 1.071953e-03 0.000000e+00
1.071953e-03 -3.192462e-04 0.000000e+00
0.000000e+00 0.000000e+00 0.000000e+00

3.067525e-03 1.064748e-02 0.000000e+00
1.064748e-02 -5.519749e-03 0.000000e+00
0.000000e+00 0.000000e+00 0.000000e+00

-1.509876e-03 1.341594e-02 0.000000e+00
1.341594e-02 -1.407347e-03 0.000000e+00
0.000000e+00 0.000000e+00 0.000000e+00

2.895515e-03 1.862852e-02 0.000000e+00
1.862852e-02 -3.879848e-03 0.000000e+00
0.000000e+00 0.000000e+00 0.000000e+00

-1.131482e-03 2.642480e-02 0.000000e+00
2.642480e-02 -7.484090e-03 0.000000e+00
0.000000e+00 0.000000e+00 0.000000e+00

4.927954e-04 1.161323e-02 0.000000e+00
1.161323e-02 -3.151010e-03 0.000000e+00
0.000000e+00 0.000000e+00 0.000000e+00

-5.272530e-04 4.609323e-03 0.000000e+00
4.609323e-03 -5.320594e-04 0.000000e+00
0.000000e+00 0.000000e+00 0.000000e+00

9.543253e-04 5.030208e-03 0.000000e+00
5.030208e-03 -1.934960e-03 0.000000e+00
0.000000e+00 0.000000e+00 0.000000e+00

2.262707e-03 5.069153e-03 0.000000e+00
5.069153e-03 -3.463477e-03 0.000000e+00
0.000000e+00 0.000000e+00 0.000000e+00

1.081792e-03 4.730304e-03 0.000000e+00
4.730304e-03 -1.977382e-03 0.000000e+00
0.000000e+00 0.000000e+00 0.000000e+00

1.273676e-03 8.069857e-03 0.000000e+00
8.069857e-03 -1.967829e-03 0.000000e+00
0.000000e+00 0.000000e+00 0.000000e+00

2.532282e-03 7.857496e-03 0.000000e+00
7.857496e-03 -4.138368e-03 0.000000e+00
0.000000e+00 0.000000e+00 0.000000e+00

2.550572e-03 7.879818e-03 0.000000e+00
7.879818e-03 -4.316610e-03 0.000000e+00
0.000000e+00 0.000000e+00 0.000000e+00

1.684774e-03 1.023558e-02 0.000000e+00
1.023558e-02 -3.301507e-03 0.000000e+00
0.000000e+00 0.000000e+00 0.000000e+00

3.036598e-03 1.499466e-02 0.000000e+00
1.499466e-02 -7.196143e-03 0.000000e+00
0.000000e+00 0.000000e+00 0.000000e+00

3.069338e-03 1.052216e-02 0.000000e+00
1.052216e-02 -3.942162e-03 0.000000e+00
0.000000e+00 0.000000e+00 0.000000e+00

3.914715e-04 1.057928e-03 0.000000e+00
1.057928e-03 -4.714938e-04 0.000000e+00
0.000000e+00 0.000000e+00 0.000000e+00

8.004697e-04 1.041081e-02 0.000000e+00
1.041081e-02 -3.600793e-03 0.000000e+00
0.000000e+00 0.000000e+00 0.000000e+00

-3.454142e-04 1.252268e-02 0.000000e+00
1.252268e-02 -1.808852e-03 0.000000e+00
0.000000e+00 0.000000e+00 0.000000e+00

1.086092e-02 3.321513e-03 0.000000e+00
3.321513e-03 -1.453560e-02 0.000000e+00
0.000000e+00 0.000000e+00 0.000000e+00

1.101807e-02 4.273026e-03 0.000000e+00
4.273026e-03 -1.311635e-02 0.000000e+00
0.000000e+00 0.000000e+00 0.000000e+00

9.678346e-03 4.279149e-03 0.000000e+00
4.279149e-03 -1.257976e-02 0.000000e+00
0.000000e+00 0.000000e+00 0.000000e+00

-1.227583e-04 5.153178e-03 0.000000e+00
5.153178e-03 -7.634820e-04 0.000000e+00
0.000000e+00 0.000000e+00 0.000000e+00

-2.718766e-04 5.486008e-03 0.000000e+00
5.486008e-03 -9.117689e-04 0.000000e+00
0.000000e+00 0.000000e+00 0.000000e+00

1.061565e-02 1.231990e-03 0.000000e+00
1.231990e-03 -1.357513e-02 0.000000e+00
0.000000e+00 0.000000e+00 0.000000e+00

1.024487e-02 3.420829e-04 0.000000e+00
3.420829e-04 -1.243847e-02 0.000000e+00
0.000000e+00 0.000000e+00 0.000000e+00

1.065895e-02 1.648792e-03 0.000000e+00
1.648792e-03 -1.257227e-02 0.000000e+00
0.000000e+00 0.000000e+00 0.000000e+00

8.958508e-03 1.287521e-03 0.000000e+00
1.287521e-03 -1.209414e-02 0.000000e+00
0.000000e+00 0.000000e+00 0.000000e+00

8.956040e-03 1.166954e-06 0.000000e+00
1.166954e-06 -1.068475e-02 0.000000e+00
0.000000e+00 0.000000e+00 0.000000e+00

9.099867e-03 2.384877e-03 0.000000e+00
2.384877e-03 -1.059549e-02 0.000000e+00
0.000000e+00 0.000000e+00 0.000000e+00

9.609483e-03 3.192485e-03 0.000000e+00
3.192485e-03 -1.252485e-02 0.000000e+00
0.000000e+00 0.000000e+00 0.000000e+00

